12
-1 85 72 84 24 10 22 40 50 84 65 49 
85 -1 23 8 96 38 23 91 76 45 36 1 
72 23 -1 39 43 30 48 91 58 10 62 8 
84 8 39 -1 33 80 32 49 11 42 81 9 
24 96 43 33 -1 34 60 75 87 32 64 14 
10 38 30 80 34 -1 94 41 85 22 21 42 
22 23 48 32 60 94 -1 63 75 68 54 60 
40 91 91 49 75 41 63 -1 58 37 81 97 
50 76 58 11 87 85 75 58 -1 61 47 67 
84 45 10 42 32 22 68 37 61 -1 90 19 
65 36 62 81 64 21 54 81 47 90 -1 12 
49 1 8 9 14 42 60 97 67 19 12 -1 
